n = 16;

R =
[|0,1,0,4,0,2,2,0,0,0,0,0,0,0,0,5,
 |0,0,0,4,0,0,0,0,0,0,4,4,4,4,0,5,
 |0,0,0,4,0,0,0,0,0,0,0,0,0,0,0,5,
 |0,4,0,4,0,0,0,0,7,7,7,7,7,7,7,5,
 |1,4,0,8,8,8,8,8,8,8,8,0,0,0,8,5,
 |0,4,0,0,0,0,0,0,0,0,0,0,0,0,8,7,
 |0,4,0,0,5,5,5,5,5,0,0,0,0,0,8,7,
 |0,0,1,0,0,0,0,0,0,0,1,0,0,0,8,7,
 |0,0,0,5,5,5,5,5,0,0,0,2,2,0,8,7,
 |0,0,0,0,0,1,0,4,4,4,4,0,0,3,8,7,
 |0,0,0,0,2,2,0,0,3,3,3,3,0,3,8,7,
 |0,5,5,5,5,5,0,0,0,0,1,3,0,3,8,7,
 |0,0,0,0,0,2,0,2,2,1,0,3,0,0,0,0,
 |0,0,1,0,1,2,0,0,0,0,0,0,0,0,0,0,
 |0,0,0,0,0,0,0,0,1,6,6,6,6,6,6,0,
 |0,0,0,0,0,0,0,7,7,7,7,7,7,7,0,0,
 |];

